
Gurobi 10.0.1 (linux64) logging started Sun Nov 26 15:51:14 2023

Set parameter LogFile to value "ArtificialInstance/ExperimentV2/S4T4K1/AdRo/gurobi91.txt"
Gurobi Optimizer version 10.0.1 build v10.0.1rc0 (linux64)

CPU model: AMD EPYC 7H12 64-Core Processor, instruction set [SSE2|AVX|AVX2]
Thread count: 128 physical cores, 128 logical processors, using up to 32 threads

Academic license 656792 - for non-commercial use only - registered to b.___@student.vu.nl
Optimize a model with 4659 rows, 4406 columns and 17353 nonzeros
Model fingerprint: 0xe4749d65
Variable types: 1 continuous, 4405 integer (4405 binary)
Coefficient statistics:
  Matrix range     [1e+00, 4e+01]
  Objective range  [1e+00, 2e+01]
  Bounds range     [1e+00, 1e+00]
  RHS range        [1e+00, 1e+00]
Presolve removed 447 rows and 417 columns
Presolve time: 0.06s
Presolved: 4212 rows, 3989 columns, 16102 nonzeros
Variable types: 1 continuous, 3988 integer (3988 binary)
Found heuristic solution: objective 274.7718570

Root relaxation: objective 5.399451e+01, 4004 iterations, 0.23 seconds (0.21 work units)

    Nodes    |    Current Node    |     Objective Bounds      |     Work
 Expl Unexpl |  Obj  Depth IntInf | Incumbent    BestBd   Gap | It/Node Time

     0     0   53.99451    0  455  274.77186   53.99451  80.3%     -    0s
H    0     0                     213.3099389   53.99451  74.7%     -    0s
H    0     0                     192.4130004   53.99451  71.9%     -    0s
H    0     0                      71.6985513   53.99451  24.7%     -    0s
     0     0   55.46712    0  505   71.69855   55.46712  22.6%     -    0s
H    0     0                      61.4907616   55.46712  9.80%     -    0s
H    0     0                      60.0271322   55.52833  7.49%     -    0s
     0     0   55.52833    0  555   60.02713   55.52833  7.49%     -    0s
     0     0   56.38117    0  610   60.02713   56.38117  6.07%     -    0s
H    0     0                      59.0622178   56.38117  4.54%     -    0s
H    0     0                      58.9250156   56.38117  4.32%     -    0s
H    0     0                      57.9457428   56.95414  1.71%     -    0s
     0     0   56.95414    0  515   57.94574   56.95414  1.71%     -    0s
     0     0   56.95414    0  429   57.94574   56.95414  1.71%     -    0s
     0     0   56.95414    0  433   57.94574   56.95414  1.71%     -    0s
     0     0   56.95414    0  424   57.94574   56.95414  1.71%     -    0s
     0     0   57.08479    0  311   57.94574   57.08479  1.49%     -    0s
     0     0   57.08479    0   52   57.94574   57.08479  1.49%     -    1s

Explored 1 nodes (8193 simplex iterations) in 1.17 seconds (0.72 work units)
Thread count was 32 (of 128 available processors)

Solution count 9: 57.9457 58.925 59.0622 ... 274.772

Optimal solution found (tolerance 1.00e-04)
Best objective 5.794574280108e+01, best bound 5.794574280108e+01, gap 0.0000%
